problems/VanDerWaerdenNumbers/VanDerWaerden-models/compact/O2/lingeling/model_1-k3l4n79-solution000001.eprime-solution
language ESSENCE' 1.0

letting p_PartitionAsSet_ExplicitR2_Occurrence be
        [[false, false, false, true, false, true, true, false, false, false, false, true, false, false, false, false,
          false, false, false, false, false, true, false, true, false, true, false, false, false, true, true, true,
          false, false, true, true, false, false, true, false, false, false, false, true, false, true, true, false,
          false, false, true, false, false, true, false, false, false, true, true, true, false, true, false, false,
          false, false, false, true, false, false, false, false, false, false, true, true, false, false,
          true; int(1..79)],
         [false, false, true, false, true, false, false, true, false, false, false, false, true, false, true, false,
          false, false, true, true, false, false, true, false, true, false, false, true, true, false, false, false,
          false, true, false, false, false, true, false, true, true, false, false, false, true, false, false, false,
          true, false, false, true, false, false, false, false, true, false, false, false, false, false, true, false,
          false, false, true, false, true, false, true, true, false, false, false, false, true, true,
          false; int(1..79)],
         [true, true, false, false, false, false, false, false, true, true, true, false, false, true, false, true, true,
          true, false, false, true, false, false, false, false, false, true, false, false, false, false, false, true,
          false, false, false, true, false, false, false, false, true, true, false, false, false, false, true, false,
          true, false, false, true, false, true, true, false, false, false, false, true, false, false, true, true, true,
          false, false, false, true, false, false, true, true, false, false, false, false,
          false; int(1..79)]; int(1..3)]
