problems/VanDerWaerdenNumbers/VanDerWaerden-models/compact/O2/lingeling/model_1-k3l4n79-solution000001.solution
language Essence 1.3

letting p be
        partition({1, 2, 9, 10, 11, 14, 16, 17, 18, 21, 27, 33, 37, 42, 43, 48, 50, 53, 55, 56, 61, 64, 65, 66, 70, 73,
                   74},
                  {3, 5, 8, 13, 15, 19, 20, 23, 25, 28, 29, 34, 38, 40, 41, 45, 49, 52, 57, 63, 67, 69, 71, 72, 77, 78},
                  {4, 6, 7, 12, 22, 24, 26, 30, 31, 32, 35, 36, 39, 44, 46, 47, 51, 54, 58, 59, 60, 62, 68, 75, 76, 79})
